(set-logic QF_LIA)
(declare-fun x1 () Int)
(declare-fun x2 () Int)
(declare-fun x3 () Int)
(declare-fun x4 () Int)
(declare-fun x5 () Int)
(declare-fun x6 () Int)
(declare-fun x7 () Int)
(declare-fun x8 () Int)
(declare-fun x9 () Int)
(declare-fun x10 () Int)
(declare-fun x11 () Int)
(declare-fun x12 () Int)
(declare-fun x13 () Int)
(declare-fun x14 () Int)
(declare-fun x15 () Int)
(declare-fun x16 () Int)
(declare-fun x17 () Int)
(declare-fun x18 () Int)
(declare-fun x19 () Int)
(declare-fun x20 () Int)
(assert (let ((.def_0 (* (- 1) x19))) (let ((.def_1 (+ x20 .def_0))) (let ((.def_2 (= .def_1 1))) (let ((.def_3 (<= 10 x20))) (let ((.def_4 (not .def_3))) (let ((.def_5 (<= x5 4))) (let ((.def_6 (not .def_5))) (let ((.def_7 (<= 5 x3))) (let ((.def_8 (not .def_7))) (let ((.def_9 (<= 0 x1))) (let ((.def_10 (<= x1 0))) (let ((.def_11 (not .def_10))) (let ((.def_12 (* (- 1) x2))) (let ((.def_13 (+ x1 .def_12))) (let ((.def_14 (= .def_13 (- 3)))) (let ((.def_15 (* (- 1) x3))) (let ((.def_16 (+ .def_12 .def_15))) (let ((.def_17 (* 2 x1))) (let ((.def_18 (+ .def_17 .def_16))) (let ((.def_19 (= .def_18 0))) (let ((.def_20 (* (- 1) x7))) (let ((.def_21 (+ .def_15 .def_20))) (let ((.def_22 (+ x2 .def_21))) (let ((.def_23 (+ x1 .def_22))) (let ((.def_24 (= .def_23 0))) (let ((.def_25 (<= 0 x20))) (let ((.def_26 (+ x10 x12))) (let ((.def_27 (+ x9 .def_26))) (let ((.def_28 (+ x8 .def_27))) (let ((.def_29 (+ x7 .def_28))) (let ((.def_30 (+ x11 .def_29))) (let ((.def_31 (= .def_30 26))) (let ((.def_32 (<= 3 x15))) (let ((.def_33 (ite .def_32 3 x15))) (let ((.def_34 (= x16 .def_33))) (let ((.def_35 (* (- 1) x17))) (let ((.def_36 (+ x18 .def_35))) (let ((.def_37 (= .def_36 (- 1)))) (let ((.def_38 (* (- 1) x9))) (let ((.def_39 (+ x7 .def_38))) (let ((.def_40 (= .def_39 (- 2)))) (let ((.def_41 (* (- 1) x14))) (let ((.def_42 (* 3 x11))) (let ((.def_43 (+ .def_42 .def_41))) (let ((.def_44 (+ .def_12 .def_43))) (let ((.def_45 (+ .def_17 .def_44))) (let ((.def_46 (= .def_45 (- 25)))) (let ((.def_47 (* (- 1) x1))) (let ((.def_48 (+ 5 .def_47))) (let ((.def_49 (+ x1 (- 3)))) (let ((.def_50 (ite .def_11 .def_49 .def_48))) (let ((.def_51 (= x4 .def_50))) (let ((.def_52 (+ x8 .def_38))) (let ((.def_53 (= .def_52 (- 2)))) (let ((.def_54 (* (- 1) x5))) (let ((.def_55 (+ .def_54 x4))) (let ((.def_56 (+ x3 .def_55))) (let ((.def_57 (+ x2 .def_56))) (let ((.def_58 (= .def_57 0))) (let ((.def_59 (+ x8 x10))) (let ((.def_60 (+ x7 .def_59))) (let ((.def_61 (= .def_60 10))) (let ((.def_62 (* (- 1) x6))) (let ((.def_63 (+ x5 .def_62))) (let ((.def_64 (<= .def_63 (- 1)))) (let ((.def_65 (<= x6 30))) (let ((.def_66 (+ 5 x10))) (let ((.def_67 (+ (- 2) x10))) (let ((.def_68 (<= x10 0))) (let ((.def_69 (not .def_68))) (let ((.def_70 (ite .def_69 .def_67 .def_66))) (let ((.def_71 (= x11 .def_70))) (let ((.def_72 (+ x11 x12))) (let ((.def_73 (= .def_72 3))) (let ((.def_74 (= x6 13))) (let ((.def_75 (= x1 5))) (let ((.def_76 (+ x13 .def_62))) (let ((.def_77 (+ x1 .def_76))) (let ((.def_78 (= .def_77 0))) (let ((.def_79 (* (- 1) x13))) (let ((.def_80 (+ x14 .def_79))) (let ((.def_81 (= .def_80 (- 2)))) (let ((.def_82 (* (- 1) x15))) (let ((.def_83 (+ x14 .def_82))) (let ((.def_84 (= .def_83 (- 5)))) (let ((.def_85 (* 2 x16))) (let ((.def_86 (+ x17 .def_85))) (let ((.def_87 (= .def_86 7))) (let ((.def_88 (and .def_87 .def_84 .def_81 .def_78 .def_75 .def_74 .def_73 .def_71 .def_65 .def_64 .def_61 .def_58 .def_53 .def_51 .def_46 .def_40 .def_37 .def_34 .def_31 .def_25 .def_24 .def_19 .def_14 .def_11 .def_9 .def_8 .def_6 .def_4 .def_2 true))) .def_88))))))))))))))))))))))))))))))))))))))))))))))))))))))))))))))))))))))))))))))))))))))))))
(check-sat)
